JulietBench/Juliet_Based_Patch_Bench/linux/CWE-189-Numeric-Errors/CVE_2010_3067_75e1c70fc31490ef8a373ea2a4bea2524099b478/solverdo_io_submit_Snippet.smt2
; benchmark generated from python API
(set-info :status unknown)
(declare-fun R () (_ BitVec 64))
(declare-fun rdi () (_ BitVec 64))
(assert
 (let (($x225 (= (_ bv18446744073709551594 64) R)))
 (let ((?x15 (bvlshr rdi (_ bv63 64))))
 (let ((?x13 ((_ extract 0 0) ?x15)))
 (let (($x7 (and (distinct (_ bv0 1) ?x13) true)))
 (let (($x226 (and $x7 $x225)))
 (let (($x59 (= R rdi)))
 (let (($x37 (= (_ bv0 1) ?x13)))
 (let (($x60 (bvsge (_ bv230584300921369395 64) rdi)))
 (let (($x230 (and $x60 $x37 $x59)))
 (let (($x228 (= (_ bv230584300921369395 64) R)))
 (let (($x222 (bvslt (_ bv230584300921369395 64) rdi)))
 (let (($x229 (and $x222 $x37 $x228)))
 (let (($x231 (or $x229 $x230 $x226)))
 (let (($x234 (not $x231)))
 (let (($x55 (and $x37 $x59)))
 (let (($x227 (or $x55 $x226)))
 (let (($x233 (not $x227)))
 (let (($x235 (and $x233 $x234)))
 (let (($x232 (and $x227 $x231)))
 (let (($x236 (or $x232 $x235)))
 (not $x236))))))))))))))))))))))
(check-sat)
